NAME 
ROWS
 N  OBJ
 L  R0      
 L  R1      
 L  R2      
 E  R3      
COLUMNS
    MARKER    'MARKER'                 'INTORG'
    I0(4)     OBJ       -494
    I0(4)     R0        -479
    I0(4)     R1        -368
    I0(4)     R2        -903
    I0(4)     R3        589
    I1(4)     OBJ       -837
    I1(4)     R0        -228
    I1(4)     R1        -109
    I1(4)     R2        -18
    I1(4)     R3        126
    I2(4)     OBJ       -959
    I2(4)     R0        -462
    I2(4)     R1        -593
    I2(4)     R2        -12
    I2(4)     R3        76
    I3(4)     OBJ       -602
    I3(4)     R0        -746
    I3(4)     R1        -574
    I3(4)     R2        -650
    I3(4)     R3        337
    I4(4)     OBJ       -605
    I4(4)     R0        -791
    I4(4)     R1        -896
    I4(4)     R2        -309
    I4(4)     R3        227
    I5(4)     OBJ       -227
    I5(4)     R0        -225
    I5(4)     R1        -548
    I5(4)     R2        -202
    I5(4)     R3        376
    I6(4)     OBJ       -462
    I6(4)     R0        -692
    I6(4)     R1        -274
    I6(4)     R2        -2
    I6(4)     R3        875
    I7(4)     OBJ       -581
    I7(4)     R0        -148
    I7(4)     R1        -549
    I7(4)     R2        -826
    I7(4)     R3        553
    I8(4)     OBJ       -964
    I8(4)     R0        -97
    I8(4)     R1        -76
    I8(4)     R2        -854
    I8(4)     R3        367
    I9(4)     OBJ       -716
    I9(4)     R0        -911
    I9(4)     R1        -520
    I9(4)     R2        -935
    I9(4)     R3        561
    I10(4)    OBJ       -176
    I10(4)    R0        -332
    I10(4)    R1        -640
    I10(4)    R2        -306
    I10(4)    R3        974
    I11(4)    OBJ       -113
    I11(4)    R0        -590
    I11(4)    R1        -555
    I11(4)    R2        -222
    I11(4)    R3        269
    I12(4)    OBJ       -206
    I12(4)    R0        -748
    I12(4)    R1        -748
    I12(4)    R2        -43
    I12(4)    R3        579
    I13(4)    OBJ       -787
    I13(4)    R0        -291
    I13(4)    R1        -101
    I13(4)    R2        -898
    I13(4)    R3        985
    I14(4)    OBJ       -955
    I14(4)    R0        -191
    I14(4)    R1        -301
    I14(4)    R2        -796
    I14(4)    R3        919
    I15(4)    OBJ       -700
    I15(4)    R0        -353
    I15(4)    R1        -539
    I15(4)    R2        -939
    I15(4)    R3        887
    I16(4)    OBJ       -653
    I16(4)    R0        -517
    I16(4)    R1        -326
    I16(4)    R2        -446
    I16(4)    R3        187
    I17(4)    OBJ       -529
    I17(4)    R0        -653
    I17(4)    R1        -992
    I17(4)    R2        -69
    I17(4)    R3        921
    I18(4)    OBJ       -247
    I18(4)    R0        -933
    I18(4)    R1        -687
    I18(4)    R2        -487
    I18(4)    R3        712
    I19(4)    OBJ       -91
    I19(4)    R0        -481
    I19(4)    R1        -422
    I19(4)    R2        -522
    I19(4)    R3        41
    I20(1)    R3        1
    MARKER    'MARKER'                 'INTEND'
RHS
    RHS1      R0        -5216
    RHS1      R1        -5006
    RHS1      R2        -7205
    RHS1      R3        5280
BOUNDS
 UP BND1      I0(4)     1
 UP BND1      I1(4)     1
 UP BND1      I2(4)     1
 UP BND1      I3(4)     1
 UP BND1      I4(4)     1
 UP BND1      I5(4)     1
 UP BND1      I6(4)     1
 UP BND1      I7(4)     1
 UP BND1      I8(4)     1
 UP BND1      I9(4)     1
 UP BND1      I10(4)    1
 UP BND1      I11(4)    1
 UP BND1      I12(4)    1
 UP BND1      I13(4)    1
 UP BND1      I14(4)    1
 UP BND1      I15(4)    1
 UP BND1      I16(4)    1
 UP BND1      I17(4)    1
 UP BND1      I18(4)    1
 UP BND1      I19(4)    1
 LI BND1      I20(1)    0
ENDATA
